68
150
105	3
104	3
103	3
102	3
99	3
98	5
97	2
96	1
95	2
94	7
93	3
92	2
91	5
90	7
89	3
88	2
87	2
86	1
85	2
84	5
83	2
82	7
81	1
80	2
79	3
78	6
77	5
76	1
75	1
74	3
73	4
72	2
71	4
70	1
69	4
68	2
66	3
65	2
64	2
63	1
61	2
60	2
59	2
58	3
57	1
56	3
55	2
54	2
53	3
52	3
51	3
50	2
49	4
48	2
47	5
44	6
43	2
42	2
41	4
40	4
38	3
37	2
36	2
35	4
34	3
33	1
32	4
31	4
